p cnf 18 32
1 0
2 3 0
1 -4 0
1 -5 0
2 -6 0
7 -8 0
7 -6 0
9 -7 0
9 -10 0
11 -12 0
11 -13 0
4 -11 0
4 -14 0
3 -13 0
15 -8 0
15 -6 0
16 -12 0
17 -8 0
18 -12 0
-2 -3 0
8 6 -7 0
12 13 -11 0
7 10 -9 0
11 14 -4 0
4 5 -1 0
8 -15 -17 0
12 -16 -18 0
6 -2 -15 0
13 -8 -3 0
13 -6 -3 0
13 -3 -10 0
8 6 10 -13 0